TOUR_SECTION
60
18
52
48
168
155
190
174
102
139
121
141
96
9
165
150
144
178
11
32
57
44
34
142
37
100
53
111
83
45
143
186
27
15
197
8
99
109
161
88
63
134
23
74
76
106
198
183
42
36
24
181
152
175
46
3
62
192
184
79
39
151
86
120
137
160
81
94
77
85
187
196
31
107
5
157
166
112
131
188
50
154
16
117
189
132
158
170
179
115
90
84
91
14
68
140
10
33
67
173
65
6
162
35
195
12
145
2
21
95
138
98
71
135
28
19
30
56
156
116
70
66
126
125
130
194
69
113
163
185
146
97
114
159
61
20
191
177
122
72
26
104
182
40
92
119
133
153
172
64
128
110
22
103
51
200
129
136
41
73
82
108
43
147
118
149
148
199
75
13
17
29
87
38
58
7
55
78
127
105
123
47
1
93
193
80
54
59
89
176
180
169
4
101
49
167
171
164
124
25
-1
EOF